Route #1: 4 92 182 57 133 147 31 32 38 108 56 45 85 165 177 65 128 125 189 109 151 94 99 168 53 101 192 160 112 50 157 33 66 82 154 
Route #2: 140 54 89 100 37 9 12 155 88 69 127 199 84 134 58 191 113 176 105 118 137 144 123 115 121 11 71 87 17 174 
Route #3: 142 24 131 48 136 3 43 180 124 156 102 152 169 72 161 119 98 16 40 195 166 21 139 59 143 188 29 173 86 114 117 23 74 52 106 22 129 55 81 107 194 158 41 70 126 80 110 178 90 93 146 19 193 73 120 96 175 
Route #4: 150 187 130 171 78 79 39 
Route #5: 153 49 14 47 200 103 7 68 18 179 15 183 196 184 190 167 27 51 61 198 91 111 145 116 44 95 83 148 36 
Route #6: 163 28 6 132 162 63 149 42 172 197 5 62 181 35 164 104 25 170 10 77 122 26 20 159 46 138 186 135 141 185 2 34 76 1 60 8 13 75 97 30 64 67 
Cost 2151.2
